33D32945 STP File, STP Format Version 1.0

SECTION Comment
Name    "Series C" 
Creator "A. M. Costa" 
Format  "Z.H. Fu and J. K. Hao"
Remark  "Sparse graph with random weights"
#TotalEdgeCost 13739
#BudgetFraction 100
END 

SECTION Graph 
Nodes 500 
Edges 2500 
Root 1
Budget 137
HopLimit 5
E 1 59 10 
E 1 107 6 
E 1 267 7 
E 1 278 9 
E 1 302 1 
E 1 331 1 
E 1 368 3 
E 1 381 3 
E 1 481 7 
E 2 35 8 
E 2 63 2 
E 2 131 7 
E 2 156 3 
E 2 170 10 
E 2 177 4 
E 2 192 8 
E 2 309 8 
E 2 329 3 
E 2 413 8 
E 2 417 3 
E 2 430 9 
E 2 459 10 
E 2 460 10 
E 3 36 8 
E 3 81 6 
E 3 153 9 
E 3 155 3 
E 3 288 8 
E 3 358 10 
E 3 395 6 
E 3 430 9 
E 3 468 8 
E 4 47 1 
E 4 119 2 
E 4 191 8 
E 4 207 4 
E 4 240 2 
E 4 298 2 
E 4 301 2 
E 4 355 4 
E 4 405 2 
E 4 410 6 
E 5 98 7 
E 5 117 5 
E 5 173 2 
E 5 180 10 
E 5 229 8 
E 5 245 10 
E 5 251 1 
E 5 348 3 
E 6 16 10 
E 6 28 9 
E 6 49 2 
E 6 61 7 
E 6 220 8 
E 6 251 9 
E 6 285 2 
E 6 341 6 
E 6 361 7 
E 6 383 8 
E 6 421 8 
E 6 436 6 
E 6 442 1 
E 6 500 2 
E 7 126 6 
E 7 174 3 
E 7 184 3 
E 7 191 10 
E 7 194 3 
E 7 197 2 
E 7 214 5 
E 7 313 5 
E 7 354 3 
E 7 360 2 
E 7 390 9 
E 7 398 5 
E 7 464 10 
E 7 494 6 
E 8 87 10 
E 8 91 3 
E 8 98 8 
E 8 104 1 
E 8 150 5 
E 8 193 3 
E 8 198 10 
E 8 243 10 
E 8 316 8 
E 8 356 10 
E 8 457 7 
E 8 469 10 
E 9 61 1 
E 9 69 3 
E 9 75 3 
E 9 146 2 
E 9 181 7 
E 9 229 2 
E 9 273 1 
E 9 276 5 
E 9 372 9 
E 9 435 6 
E 10 30 5 
E 10 47 3 
E 10 94 7 
E 10 260 6 
E 10 304 1 
E 10 410 5 
E 10 497 2 
E 11 42 6 
E 11 175 3 
E 11 180 9 
E 11 370 3 
E 11 375 1 
E 11 380 8 
E 11 399 7 
E 12 95 3 
E 12 98 7 
E 12 117 5 
E 12 371 7 
E 12 373 2 
E 12 429 3 
E 12 448 7 
E 12 490 7 
E 12 500 3 
E 13 53 7 
E 13 122 1 
E 13 147 7 
E 13 176 8 
E 13 192 4 
E 13 307 2 
E 13 318 8 
E 13 319 7 
E 13 363 1 
E 13 401 5 
E 13 404 6 
E 13 423 8 
E 14 47 9 
E 14 59 10 
E 14 73 1 
E 14 114 7 
E 14 155 5 
E 14 215 2 
E 14 240 8 
E 14 253 9 
E 14 275 4 
E 14 288 7 
E 14 295 3 
E 14 306 7 
E 14 332 9 
E 14 334 8 
E 14 418 6 
E 14 437 5 
E 14 486 8 
E 15 27 9 
E 15 136 6 
E 15 170 6 
E 15 351 6 
E 15 396 10 
E 16 30 5 
E 16 167 2 
E 16 178 1 
E 16 399 8 
E 16 484 3 
E 17 189 3 
E 17 212 2 
E 17 324 6 
E 17 328 2 
E 17 385 4 
E 18 27 8 
E 18 29 3 
E 18 121 7 
E 18 137 5 
E 18 176 9 
E 18 210 3 
E 18 234 6 
E 18 239 5 
E 18 301 6 
E 18 482 10 
E 19 70 9 
E 19 106 1 
E 19 182 2 
E 19 227 3 
E 19 240 7 
E 19 241 5 
E 19 278 8 
E 19 288 2 
E 19 340 9 
E 19 432 1 
E 19 447 2 
E 20 31 7 
E 20 138 9 
E 20 165 9 
E 20 416 6 
E 20 464 6 
E 21 66 2 
E 21 262 7 
E 21 271 2 
E 21 311 1 
E 21 339 3 
E 21 366 5 
E 21 419 10 
E 22 140 2 
E 22 163 2 
E 22 164 7 
E 22 231 2 
E 22 247 7 
E 22 295 10 
E 22 316 7 
E 22 477 8 
E 23 36 5 
E 23 61 8 
E 23 70 7 
E 23 82 2 
E 23 95 1 
E 23 120 1 
E 23 121 10 
E 23 293 10 
E 23 336 1 
E 23 360 4 
E 24 26 3 
E 24 99 1 
E 24 144 2 
E 24 173 4 
E 24 194 9 
E 24 263 8 
E 24 268 7 
E 24 307 4 
E 24 353 2 
E 24 371 9 
E 24 492 1 
E 25 47 5 
E 25 103 9 
E 25 195 3 
E 25 225 8 
E 25 409 9 
E 25 423 6 
E 25 427 1 
E 25 453 7 
E 25 500 7 
E 26 105 3 
E 26 122 7 
E 26 154 1 
E 26 167 9 
E 26 293 2 
E 26 296 1 
E 26 330 3 
E 26 340 7 
E 26 366 5 
E 26 436 7 
E 26 442 6 
E 27 99 5 
E 27 115 10 
E 27 126 4 
E 27 204 10 
E 27 223 3 
E 27 231 3 
E 27 291 9 
E 27 347 2 
E 27 391 5 
E 27 396 5 
E 27 428 4 
E 27 430 9 
E 27 432 5 
E 27 454 3 
E 28 37 4 
E 28 58 6 
E 28 136 8 
E 28 174 7 
E 28 252 5 
E 28 277 7 
E 28 401 7 
E 28 422 4 
E 28 441 6 
E 29 139 3 
E 29 159 1 
E 29 257 2 
E 29 261 5 
E 29 321 8 
E 29 336 8 
E 29 410 7 
E 29 435 1 
E 29 487 4 
E 30 140 7 
E 30 163 10 
E 30 225 9 
E 30 271 9 
E 30 298 7 
E 30 327 8 
E 30 340 5 
E 30 454 9 
E 30 493 6 
E 31 130 2 
E 31 220 1 
E 31 262 5 
E 31 303 9 
E 31 327 9 
E 31 372 9 
E 31 417 7 
E 32 55 5 
E 32 124 1 
E 32 139 2 
E 32 189 5 
E 32 199 4 
E 32 266 6 
E 32 279 1 
E 33 200 10 
E 33 230 3 
E 33 233 6 
E 33 347 9 
E 33 359 9 
E 33 431 3 
E 34 198 6 
E 34 257 5 
E 34 302 3 
E 34 311 6 
E 34 420 8 
E 34 431 8 
E 34 434 1 
E 35 74 5 
E 35 77 1 
E 35 87 2 
E 35 231 9 
E 35 232 10 
E 35 243 3 
E 35 288 2 
E 35 301 5 
E 35 345 7 
E 35 397 2 
E 35 491 9 
E 36 51 4 
E 36 74 5 
E 36 257 4 
E 36 301 8 
E 36 335 9 
E 36 476 9 
E 37 117 5 
E 37 139 10 
E 37 172 5 
E 37 204 9 
E 37 219 5 
E 37 229 9 
E 37 232 8 
E 37 239 3 
E 37 285 9 
E 37 288 1 
E 37 304 4 
E 37 398 3 
E 37 442 1 
E 38 70 8 
E 38 122 6 
E 38 127 10 
E 38 233 9 
E 38 296 8 
E 38 371 2 
E 38 497 8 
E 38 499 5 
E 39 71 1 
E 39 82 7 
E 39 130 8 
E 39 135 5 
E 39 193 9 
E 39 229 4 
E 39 277 3 
E 39 352 2 
E 39 362 7 
E 40 201 10 
E 40 207 1 
E 40 265 2 
E 40 285 4 
E 40 296 8 
E 40 335 8 
E 40 357 5 
E 40 374 5 
E 40 408 3 
E 40 418 1 
E 40 424 1 
E 40 492 9 
E 41 90 7 
E 42 68 10 
E 42 93 4 
E 42 136 7 
E 42 141 5 
E 42 235 4 
E 42 266 4 
E 42 292 3 
E 42 294 10 
E 42 317 7 
E 42 343 6 
E 42 438 9 
E 42 456 4 
E 43 52 5 
E 43 71 4 
E 43 203 1 
E 43 248 6 
E 43 299 4 
E 43 306 10 
E 43 330 5 
E 44 143 9 
E 44 187 4 
E 44 205 6 
E 44 207 6 
E 44 349 8 
E 44 357 4 
E 44 415 7 
E 44 420 9 
E 44 455 9 
E 44 472 9 
E 45 63 3 
E 45 66 10 
E 45 72 8 
E 45 85 9 
E 45 104 10 
E 45 121 10 
E 45 416 4 
E 45 426 10 
E 45 435 9 
E 45 466 9 
E 45 486 10 
E 46 61 9 
E 46 135 1 
E 46 227 5 
E 46 237 8 
E 46 335 3 
E 46 362 4 
E 46 410 1 
E 46 421 8 
E 47 49 1 
E 47 109 6 
E 47 133 8 
E 47 166 9 
E 47 220 1 
E 47 224 2 
E 47 296 7 
E 47 321 7 
E 47 366 10 
E 47 386 9 
E 47 398 9 
E 47 445 8 
E 47 471 10 
E 48 78 4 
E 48 243 3 
E 48 263 3 
E 48 264 5 
E 48 276 4 
E 48 287 2 
E 48 337 10 
E 48 399 5 
E 49 88 9 
E 49 111 6 
E 49 196 2 
E 49 233 8 
E 49 401 5 
E 49 478 2 
E 49 499 3 
E 50 131 8 
E 50 167 9 
E 50 172 5 
E 50 256 1 
E 50 294 10 
E 50 418 2 
E 50 453 4 
E 50 476 7 
E 51 72 3 
E 51 236 1 
E 51 243 8 
E 51 284 6 
E 51 289 5 
E 51 371 9 
E 51 455 2 
E 52 210 2 
E 52 215 6 
E 52 243 6 
E 52 271 1 
E 52 303 10 
E 52 311 1 
E 52 377 4 
E 52 410 3 
E 52 478 5 
E 53 59 4 
E 53 74 2 
E 53 96 5 
E 53 191 10 
E 53 240 6 
E 53 314 2 
E 53 335 5 
E 53 411 7 
E 53 454 1 
E 54 76 8 
E 54 83 7 
E 54 100 5 
E 54 242 5 
E 54 250 8 
E 54 271 1 
E 54 283 1 
E 54 325 10 
E 54 419 3 
E 54 473 6 
E 54 475 3 
E 55 89 9 
E 55 126 3 
E 55 159 1 
E 55 186 1 
E 55 201 2 
E 55 218 5 
E 55 224 6 
E 55 252 6 
E 55 255 6 
E 55 348 5 
E 55 383 1 
E 55 408 2 
E 55 422 10 
E 55 440 3 
E 56 198 8 
E 56 208 2 
E 56 384 1 
E 56 473 6 
E 57 66 7 
E 57 459 1 
E 57 469 5 
E 57 472 7 
E 57 486 9 
E 58 152 7 
E 58 215 8 
E 58 221 6 
E 58 253 6 
E 58 259 1 
E 58 285 2 
E 58 338 8 
E 58 362 6 
E 58 416 2 
E 59 154 10 
E 59 170 3 
E 59 215 5 
E 59 359 8 
E 59 451 8 
E 59 496 9 
E 60 115 8 
E 60 134 1 
E 60 306 9 
E 60 335 8 
E 60 385 2 
E 60 426 1 
E 60 446 3 
E 60 452 4 
E 60 498 9 
E 61 101 10 
E 61 139 10 
E 61 185 9 
E 61 442 2 
E 61 462 7 
E 62 162 6 
E 62 241 4 
E 62 276 3 
E 62 277 10 
E 62 347 5 
E 62 409 5 
E 62 437 5 
E 62 467 7 
E 63 118 6 
E 63 191 8 
E 63 199 4 
E 63 295 7 
E 63 301 3 
E 63 320 10 
E 63 341 10 
E 63 343 1 
E 63 359 10 
E 63 367 8 
E 63 461 7 
E 63 499 9 
E 63 500 3 
E 64 107 10 
E 64 275 5 
E 64 279 6 
E 64 282 5 
E 64 308 6 
E 64 461 1 
E 65 155 2 
E 65 207 7 
E 65 226 8 
E 65 231 10 
E 65 244 2 
E 65 257 4 
E 65 270 6 
E 65 323 7 
E 65 386 6 
E 65 393 10 
E 65 398 4 
E 65 408 4 
E 66 211 5 
E 66 273 8 
E 66 299 1 
E 66 307 9 
E 66 328 8 
E 66 395 2 
E 66 398 3 
E 67 258 2 
E 67 272 6 
E 67 367 2 
E 67 394 7 
E 67 409 8 
E 67 434 1 
E 67 441 7 
E 67 464 9 
E 67 500 7 
E 68 76 4 
E 68 111 6 
E 68 114 1 
E 68 124 10 
E 68 139 5 
E 68 206 6 
E 68 376 6 
E 68 424 10 
E 68 434 7 
E 68 448 4 
E 68 459 2 
E 68 460 3 
E 68 480 1 
E 68 489 1 
E 68 499 4 
E 69 108 4 
E 69 123 2 
E 69 140 4 
E 69 178 10 
E 69 324 2 
E 69 356 5 
E 69 365 9 
E 69 423 7 
E 69 456 10 
E 69 464 5 
E 70 374 9 
E 70 427 7 
E 70 485 6 
E 71 77 5 
E 71 108 8 
E 71 124 5 
E 71 142 6 
E 71 171 10 
E 71 210 3 
E 71 278 9 
E 71 302 7 
E 71 304 6 
E 71 327 5 
E 71 347 10 
E 71 384 3 
E 71 385 10 
E 71 388 5 
E 71 418 8 
E 72 122 9 
E 72 151 2 
E 72 261 2 
E 72 362 8 
E 72 365 7 
E 73 145 7 
E 73 274 6 
E 73 299 10 
E 73 349 4 
E 74 80 10 
E 74 123 3 
E 74 132 4 
E 74 133 10 
E 74 169 5 
E 74 194 3 
E 74 273 6 
E 74 300 8 
E 74 330 5 
E 74 397 4 
E 74 422 2 
E 75 137 3 
E 75 197 9 
E 75 336 8 
E 75 344 1 
E 75 367 4 
E 75 459 5 
E 76 148 1 
E 76 169 10 
E 76 170 5 
E 76 291 7 
E 76 320 2 
E 76 331 9 
E 76 356 5 
E 76 364 8 
E 76 490 3 
E 77 90 8 
E 77 99 6 
E 77 398 2 
E 77 410 3 
E 77 431 5 
E 78 139 3 
E 78 161 3 
E 78 299 2 
E 78 334 10 
E 78 371 10 
E 78 419 5 
E 78 430 2 
E 78 463 9 
E 78 474 4 
E 79 147 8 
E 79 169 7 
E 79 197 7 
E 79 249 8 
E 79 251 9 
E 79 328 3 
E 79 373 4 
E 80 94 4 
E 80 105 10 
E 80 122 1 
E 80 169 2 
E 80 184 10 
E 80 345 10 
E 80 497 10 
E 81 149 5 
E 81 272 3 
E 81 292 2 
E 81 304 3 
E 81 307 5 
E 81 343 8 
E 81 356 4 
E 81 389 3 
E 81 477 8 
E 81 484 7 
E 82 117 2 
E 82 167 5 
E 82 298 2 
E 82 369 6 
E 82 378 5 
E 82 418 2 
E 82 421 5 
E 82 480 5 
E 82 489 2 
E 82 491 5 
E 83 100 3 
E 83 170 10 
E 83 174 5 
E 83 181 2 
E 83 237 10 
E 83 257 1 
E 83 267 6 
E 83 271 6 
E 83 379 3 
E 83 380 10 
E 84 88 8 
E 84 99 10 
E 84 101 2 
E 84 106 6 
E 84 126 8 
E 84 172 7 
E 84 268 2 
E 84 283 10 
E 84 334 10 
E 84 377 9 
E 84 395 7 
E 84 406 5 
E 84 432 9 
E 84 443 6 
E 84 454 8 
E 85 103 9 
E 85 193 4 
E 85 281 5 
E 85 355 4 
E 85 397 10 
E 85 398 6 
E 85 414 4 
E 85 468 7 
E 85 488 4 
E 86 104 5 
E 86 116 2 
E 86 119 1 
E 86 161 6 
E 86 181 5 
E 86 228 10 
E 86 256 1 
E 86 356 1 
E 87 99 4 
E 87 101 7 
E 87 105 4 
E 87 132 3 
E 87 145 5 
E 87 167 3 
E 87 235 8 
E 87 328 2 
E 87 405 2 
E 87 419 1 
E 88 95 3 
E 88 245 2 
E 88 262 9 
E 88 283 10 
E 88 400 3 
E 88 406 1 
E 88 412 6 
E 89 190 7 
E 89 204 7 
E 89 318 8 
E 89 418 7 
E 89 480 8 
E 89 490 3 
E 90 120 5 
E 90 139 8 
E 90 206 5 
E 90 240 4 
E 90 281 7 
E 90 302 4 
E 90 308 9 
E 90 347 5 
E 90 440 4 
E 91 157 2 
E 91 188 8 
E 91 232 1 
E 91 234 10 
E 91 318 5 
E 91 321 5 
E 91 383 3 
E 91 455 8 
E 91 470 5 
E 91 485 3 
E 92 166 4 
E 92 184 10 
E 92 252 2 
E 92 263 6 
E 92 272 3 
E 92 278 9 
E 92 352 6 
E 92 359 5 
E 92 499 5 
E 93 249 10 
E 93 254 10 
E 93 256 9 
E 93 277 7 
E 93 420 5 
E 93 457 9 
E 93 499 8 
E 94 125 6 
E 94 137 2 
E 94 208 4 
E 94 223 3 
E 94 299 1 
E 94 398 8 
E 94 407 2 
E 94 478 6 
E 94 491 5 
E 95 98 4 
E 95 139 6 
E 95 168 3 
E 95 213 4 
E 95 214 1 
E 95 267 7 
E 95 320 3 
E 95 322 3 
E 95 405 10 
E 95 452 4 
E 96 128 7 
E 96 161 10 
E 96 198 2 
E 96 208 1 
E 96 210 1 
E 96 263 1 
E 96 344 10 
E 96 353 10 
E 96 376 7 
E 96 426 2 
E 96 434 8 
E 96 463 10 
E 97 120 3 
E 97 227 2 
E 97 274 3 
E 97 298 2 
E 97 307 7 
E 97 340 2 
E 97 414 7 
E 97 429 10 
E 98 160 6 
E 98 167 1 
E 98 202 5 
E 98 208 10 
E 98 240 9 
E 98 254 3 
E 98 273 1 
E 98 326 5 
E 98 327 5 
E 98 388 10 
E 98 436 2 
E 98 460 10 
E 99 169 8 
E 99 242 8 
E 99 245 8 
E 99 482 3 
E 100 105 6 
E 100 141 9 
E 100 173 10 
E 100 211 6 
E 100 238 9 
E 100 262 1 
E 100 272 7 
E 100 301 7 
E 100 417 5 
E 100 471 5 
E 100 488 5 
E 101 118 3 
E 101 136 6 
E 101 173 8 
E 101 267 10 
E 101 298 5 
E 101 309 10 
E 101 342 9 
E 101 351 7 
E 101 373 2 
E 101 430 4 
E 101 443 6 
E 101 463 7 
E 101 464 9 
E 102 118 9 
E 102 134 7 
E 102 164 6 
E 102 201 9 
E 102 239 9 
E 102 287 3 
E 102 329 8 
E 102 350 2 
E 102 402 9 
E 102 446 2 
E 102 458 1 
E 103 138 1 
E 103 217 1 
E 103 234 4 
E 103 343 2 
E 103 369 9 
E 103 376 4 
E 104 124 6 
E 104 263 10 
E 104 268 4 
E 104 277 6 
E 104 300 10 
E 104 301 6 
E 104 353 3 
E 104 358 7 
E 104 385 3 
E 104 425 9 
E 104 461 5 
E 105 441 8 
E 105 467 4 
E 106 148 2 
E 106 318 9 
E 106 375 1 
E 106 385 2 
E 106 474 6 
E 106 498 7 
E 107 123 3 
E 107 164 6 
E 107 190 9 
E 107 221 2 
E 107 381 2 
E 107 412 7 
E 107 430 2 
E 107 471 9 
E 108 223 4 
E 108 287 6 
E 108 293 7 
E 108 298 4 
E 108 407 3 
E 108 423 10 
E 108 497 10 
E 109 152 5 
E 109 307 4 
E 109 326 5 
E 109 378 4 
E 109 434 3 
E 110 144 10 
E 110 222 6 
E 110 231 8 
E 110 233 10 
E 110 263 6 
E 110 301 5 
E 110 316 8 
E 110 443 5 
E 110 484 7 
E 111 130 9 
E 111 170 7 
E 111 224 10 
E 111 433 2 
E 112 154 7 
E 112 159 7 
E 112 167 6 
E 112 177 8 
E 112 184 2 
E 112 188 8 
E 112 207 3 
E 112 240 4 
E 112 294 2 
E 112 375 6 
E 112 406 1 
E 112 435 9 
E 112 454 2 
E 113 245 9 
E 113 297 6 
E 113 326 10 
E 113 380 1 
E 113 422 10 
E 113 424 4 
E 113 443 4 
E 114 167 4 
E 114 265 8 
E 114 387 10 
E 114 401 2 
E 114 410 1 
E 115 129 9 
E 115 139 3 
E 115 167 2 
E 115 208 8 
E 115 209 2 
E 115 262 5 
E 115 270 6 
E 115 343 8 
E 115 390 8 
E 115 414 5 
E 115 429 1 
E 115 481 8 
E 115 497 8 
E 116 145 7 
E 116 225 8 
E 116 239 2 
E 116 272 2 
E 116 285 9 
E 116 342 8 
E 116 350 8 
E 116 351 7 
E 116 352 5 
E 116 476 9 
E 117 146 6 
E 117 176 2 
E 117 217 1 
E 117 293 7 
E 117 304 1 
E 117 305 3 
E 117 313 1 
E 117 374 5 
E 117 377 10 
E 117 379 7 
E 117 442 3 
E 117 467 9 
E 117 486 2 
E 118 166 6 
E 118 170 8 
E 118 193 3 
E 118 198 5 
E 118 208 6 
E 118 213 10 
E 118 300 9 
E 118 360 3 
E 118 376 7 
E 118 459 5 
E 119 132 10 
E 119 263 9 
E 119 271 9 
E 119 283 6 
E 119 291 1 
E 119 461 9 
E 119 475 8 
E 120 131 4 
E 120 197 5 
E 120 244 10 
E 120 284 2 
E 120 344 8 
E 120 355 2 
E 120 360 4 
E 121 213 5 
E 121 215 8 
E 121 275 5 
E 121 354 3 
E 121 420 2 
E 121 443 2 
E 121 481 9 
E 122 141 5 
E 122 150 5 
E 122 275 4 
E 122 302 3 
E 122 388 2 
E 123 141 2 
E 123 192 5 
E 123 399 4 
E 123 413 3 
E 123 463 4 
E 124 162 5 
E 124 172 4 
E 124 215 10 
E 124 280 10 
E 124 298 2 
E 124 347 2 
E 124 359 4 
E 124 398 1 
E 125 135 10 
E 125 138 8 
E 125 154 7 
E 125 174 7 
E 125 205 3 
E 125 333 1 
E 125 434 10 
E 125 473 10 
E 125 483 2 
E 126 167 4 
E 126 264 10 
E 126 312 2 
E 126 377 8 
E 126 455 9 
E 126 473 3 
E 127 174 6 
E 127 389 7 
E 128 135 6 
E 128 149 4 
E 128 180 4 
E 128 181 4 
E 128 222 8 
E 128 242 9 
E 128 246 7 
E 128 254 10 
E 128 341 4 
E 128 346 9 
E 128 362 7 
E 128 374 2 
E 128 392 3 
E 129 139 5 
E 129 145 10 
E 129 197 8 
E 129 205 8 
E 129 282 4 
E 129 314 10 
E 129 373 9 
E 129 391 5 
E 129 467 9 
E 130 263 5 
E 130 276 2 
E 130 295 5 
E 130 358 7 
E 130 395 3 
E 130 442 4 
E 131 157 2 
E 131 195 8 
E 131 245 5 
E 131 319 10 
E 131 357 7 
E 131 396 2 
E 131 414 10 
E 131 451 4 
E 131 479 8 
E 132 174 7 
E 132 192 4 
E 132 209 3 
E 132 250 9 
E 132 278 1 
E 132 320 2 
E 132 332 2 
E 132 334 5 
E 132 360 10 
E 132 407 10 
E 132 424 2 
E 132 465 3 
E 132 488 7 
E 133 137 10 
E 133 143 7 
E 133 167 3 
E 133 182 8 
E 133 198 8 
E 133 239 1 
E 133 262 4 
E 133 288 7 
E 133 320 8 
E 133 340 8 
E 133 410 8 
E 133 416 6 
E 133 457 8 
E 133 477 8 
E 134 147 1 
E 134 266 9 
E 134 282 8 
E 134 290 8 
E 134 349 4 
E 134 360 10 
E 135 163 4 
E 135 181 5 
E 135 260 8 
E 135 269 4 
E 135 272 5 
E 135 297 10 
E 135 303 5 
E 135 328 7 
E 135 384 8 
E 135 424 5 
E 135 439 10 
E 135 442 2 
E 135 495 6 
E 136 163 7 
E 136 167 2 
E 136 189 5 
E 136 191 3 
E 136 265 8 
E 136 287 6 
E 136 322 7 
E 136 392 7 
E 136 417 7 
E 136 469 4 
E 137 158 9 
E 137 167 1 
E 137 276 10 
E 137 283 3 
E 137 470 9 
E 137 473 9 
E 138 171 2 
E 138 185 9 
E 138 197 2 
E 138 296 1 
E 138 313 8 
E 138 347 6 
E 138 356 3 
E 138 384 5 
E 138 420 5 
E 138 461 10 
E 138 467 3 
E 139 164 10 
E 139 170 5 
E 139 234 6 
E 139 296 1 
E 139 397 8 
E 139 420 6 
E 139 446 9 
E 140 156 3 
E 140 161 7 
E 140 194 5 
E 140 245 9 
E 140 454 6 
E 141 220 8 
E 141 274 3 
E 141 311 4 
E 141 322 7 
E 141 356 7 
E 141 403 8 
E 142 166 9 
E 142 209 7 
E 142 276 9 
E 142 322 6 
E 142 398 9 
E 142 412 9 
E 142 465 6 
E 143 179 2 
E 143 261 3 
E 143 314 6 
E 143 320 9 
E 143 381 7 
E 143 385 10 
E 143 455 6 
E 144 195 6 
E 144 257 10 
E 144 335 5 
E 144 352 10 
E 144 354 8 
E 144 399 4 
E 144 442 7 
E 145 178 7 
E 145 192 1 
E 145 256 7 
E 145 268 10 
E 145 321 10 
E 145 324 2 
E 145 399 1 
E 145 421 5 
E 145 424 3 
E 145 443 8 
E 146 149 1 
E 146 202 8 
E 146 219 9 
E 146 282 8 
E 146 307 5 
E 146 350 3 
E 146 433 9 
E 146 440 5 
E 146 441 7 
E 146 473 6 
E 147 219 3 
E 147 238 5 
E 147 244 2 
E 147 259 7 
E 147 283 3 
E 147 344 4 
E 147 346 4 
E 147 382 5 
E 147 451 9 
E 147 465 3 
E 147 468 10 
E 148 186 2 
E 148 255 7 
E 148 270 5 
E 148 309 6 
E 148 403 1 
E 148 450 9 
E 149 188 8 
E 149 247 7 
E 149 254 2 
E 149 273 1 
E 149 282 7 
E 149 425 9 
E 149 445 6 
E 150 172 10 
E 150 240 10 
E 150 266 2 
E 150 310 3 
E 150 372 1 
E 150 382 4 
E 150 455 10 
E 151 166 5 
E 151 201 5 
E 151 284 9 
E 151 333 6 
E 151 372 8 
E 151 418 7 
E 152 186 3 
E 152 241 7 
E 152 380 1 
E 152 471 7 
E 153 175 9 
E 153 231 9 
E 153 282 5 
E 153 326 9 
E 153 331 10 
E 153 381 6 
E 153 466 10 
E 153 470 2 
E 154 161 7 
E 154 163 4 
E 154 173 3 
E 154 179 6 
E 154 210 10 
E 154 235 10 
E 154 280 7 
E 154 297 2 
E 154 301 3 
E 154 307 6 
E 154 316 8 
E 154 384 2 
E 154 471 9 
E 154 493 5 
E 155 189 3 
E 155 192 9 
E 155 225 9 
E 155 402 8 
E 155 440 9 
E 155 447 1 
E 155 456 7 
E 156 232 3 
E 156 237 6 
E 156 265 1 
E 156 296 7 
E 156 328 6 
E 156 335 2 
E 156 435 5 
E 156 494 8 
E 157 194 10 
E 157 337 2 
E 157 481 8 
E 158 175 10 
E 158 200 9 
E 158 212 4 
E 158 220 6 
E 158 250 8 
E 158 313 4 
E 158 352 6 
E 158 363 2 
E 158 366 1 
E 158 373 2 
E 158 375 10 
E 158 380 7 
E 158 449 4 
E 158 458 4 
E 159 166 9 
E 159 267 10 
E 159 277 3 
E 159 364 1 
E 159 368 7 
E 159 441 8 
E 159 457 9 
E 159 484 8 
E 160 265 9 
E 160 279 9 
E 160 358 8 
E 160 390 6 
E 160 402 9 
E 160 420 5 
E 160 484 7 
E 161 233 3 
E 161 280 8 
E 161 296 3 
E 161 318 2 
E 161 346 2 
E 161 352 10 
E 161 485 7 
E 162 223 4 
E 162 318 4 
E 162 374 6 
E 162 404 4 
E 162 454 6 
E 163 211 6 
E 163 248 4 
E 163 279 3 
E 163 290 1 
E 163 295 1 
E 163 317 5 
E 163 361 1 
E 163 400 3 
E 163 435 5 
E 164 215 5 
E 164 260 4 
E 164 381 7 
E 165 224 10 
E 165 235 4 
E 165 314 6 
E 165 341 1 
E 166 172 2 
E 166 215 3 
E 166 232 3 
E 166 307 9 
E 166 380 10 
E 166 443 6 
E 167 218 5 
E 167 390 1 
E 167 475 2 
E 167 477 10 
E 167 499 9 
E 168 275 9 
E 168 279 10 
E 168 382 8 
E 168 466 9 
E 169 273 8 
E 169 274 9 
E 169 364 1 
E 169 387 10 
E 169 403 10 
E 169 408 5 
E 169 480 1 
E 169 491 2 
E 170 183 1 
E 170 225 6 
E 170 274 4 
E 170 279 1 
E 170 323 4 
E 170 335 6 
E 170 380 1 
E 170 435 2 
E 170 442 10 
E 170 448 4 
E 170 464 6 
E 171 184 2 
E 171 197 7 
E 171 284 9 
E 171 318 7 
E 171 339 3 
E 171 367 1 
E 171 408 6 
E 172 185 6 
E 172 190 9 
E 172 212 8 
E 172 356 5 
E 172 360 2 
E 172 365 4 
E 172 408 1 
E 172 425 8 
E 172 458 2 
E 172 477 1 
E 173 181 2 
E 173 197 1 
E 173 247 3 
E 173 248 4 
E 173 285 1 
E 173 345 8 
E 173 369 2 
E 173 414 1 
E 173 429 8 
E 173 451 9 
E 173 469 6 
E 174 187 6 
E 174 205 10 
E 174 276 2 
E 174 304 6 
E 174 320 1 
E 174 374 6 
E 174 378 9 
E 174 427 3 
E 174 430 4 
E 175 340 6 
E 176 177 9 
E 176 188 4 
E 176 212 5 
E 176 351 2 
E 176 352 9 
E 176 374 3 
E 176 420 7 
E 176 446 2 
E 176 452 5 
E 177 225 7 
E 177 286 10 
E 177 342 7 
E 177 345 9 
E 177 387 2 
E 177 412 6 
E 177 423 6 
E 178 346 2 
E 178 381 3 
E 178 402 6 
E 178 417 1 
E 178 493 10 
E 179 230 5 
E 179 280 6 
E 179 299 2 
E 179 317 4 
E 179 400 10 
E 179 403 3 
E 179 488 3 
E 180 272 6 
E 180 311 3 
E 180 330 5 
E 180 373 10 
E 180 402 4 
E 180 405 3 
E 180 460 4 
E 180 498 1 
E 181 183 4 
E 181 199 1 
E 181 270 3 
E 181 271 6 
E 181 287 4 
E 181 290 6 
E 181 368 3 
E 181 431 3 
E 181 457 10 
E 181 483 1 
E 182 262 1 
E 182 291 3 
E 182 323 9 
E 182 378 9 
E 182 395 8 
E 182 405 6 
E 183 194 4 
E 183 253 8 
E 183 282 3 
E 183 308 6 
E 183 318 10 
E 183 347 5 
E 183 390 3 
E 183 391 10 
E 183 395 4 
E 183 423 5 
E 183 434 9 
E 184 320 2 
E 184 326 4 
E 184 354 9 
E 184 477 9 
E 185 230 4 
E 185 252 7 
E 185 282 1 
E 185 423 8 
E 185 430 5 
E 185 441 7 
E 186 267 6 
E 186 277 1 
E 186 352 5 
E 186 453 2 
E 187 190 1 
E 187 261 6 
E 187 310 6 
E 187 312 4 
E 187 410 2 
E 187 431 4 
E 188 355 1 
E 188 381 9 
E 189 193 2 
E 189 228 6 
E 189 236 8 
E 189 492 7 
E 190 212 3 
E 190 254 1 
E 190 328 5 
E 190 348 3 
E 190 443 4 
E 191 192 7 
E 191 200 5 
E 191 244 10 
E 191 248 6 
E 191 268 7 
E 191 288 4 
E 191 319 10 
E 191 432 2 
E 192 225 7 
E 192 248 9 
E 192 259 2 
E 192 291 1 
E 192 301 1 
E 192 337 9 
E 192 428 2 
E 192 436 5 
E 193 386 3 
E 193 468 10 
E 193 484 6 
E 194 205 2 
E 194 228 2 
E 194 299 6 
E 194 313 4 
E 194 411 2 
E 194 426 4 
E 194 465 5 
E 195 216 9 
E 195 258 7 
E 195 269 10 
E 195 294 2 
E 195 456 1 
E 195 461 9 
E 195 485 3 
E 195 496 8 
E 196 203 3 
E 196 204 10 
E 196 246 10 
E 196 260 6 
E 196 312 1 
E 196 357 5 
E 196 433 2 
E 196 437 6 
E 196 500 8 
E 197 289 6 
E 197 359 8 
E 197 364 6 
E 197 421 7 
E 197 459 2 
E 197 466 1 
E 198 263 1 
E 198 273 5 
E 198 304 10 
E 198 310 5 
E 198 378 6 
E 198 409 2 
E 198 411 10 
E 198 449 4 
E 198 461 10 
E 198 480 6 
E 199 235 8 
E 199 339 3 
E 199 380 7 
E 199 426 4 
E 200 235 6 
E 200 344 10 
E 200 421 1 
E 201 282 3 
E 201 367 1 
E 201 385 7 
E 201 497 3 
E 202 212 5 
E 202 236 4 
E 202 253 1 
E 202 316 9 
E 202 398 7 
E 202 443 7 
E 202 468 1 
E 203 247 4 
E 203 257 7 
E 203 296 4 
E 203 323 2 
E 203 324 2 
E 203 388 3 
E 203 448 1 
E 204 245 9 
E 204 248 1 
E 204 281 4 
E 204 378 10 
E 204 411 7 
E 204 453 5 
E 205 294 3 
E 205 320 9 
E 205 323 3 
E 205 427 3 
E 206 236 4 
E 206 271 9 
E 206 282 7 
E 206 309 10 
E 206 333 2 
E 206 355 4 
E 206 429 8 
E 206 475 6 
E 206 485 1 
E 207 253 2 
E 207 280 9 
E 207 315 4 
E 207 370 8 
E 207 371 2 
E 207 429 6 
E 207 443 5 
E 207 463 4 
E 208 257 10 
E 208 293 3 
E 208 384 5 
E 208 413 8 
E 208 442 4 
E 208 449 6 
E 208 452 2 
E 208 455 7 
E 208 492 4 
E 209 287 6 
E 209 331 2 
E 210 227 7 
E 210 240 1 
E 210 276 1 
E 210 333 10 
E 210 374 4 
E 210 390 3 
E 210 498 4 
E 211 241 8 
E 211 300 4 
E 211 389 10 
E 211 428 3 
E 212 219 6 
E 212 253 3 
E 212 316 5 
E 212 338 2 
E 212 347 7 
E 212 368 6 
E 212 377 7 
E 212 425 6 
E 212 434 4 
E 212 461 2 
E 213 283 6 
E 213 327 3 
E 213 348 4 
E 213 391 5 
E 213 418 5 
E 213 481 1 
E 213 487 3 
E 214 231 5 
E 214 250 3 
E 214 343 5 
E 214 344 7 
E 214 382 1 
E 214 437 9 
E 214 465 4 
E 214 481 10 
E 215 217 4 
E 215 226 7 
E 215 233 6 
E 215 318 2 
E 215 420 3 
E 216 225 8 
E 216 231 8 
E 216 242 5 
E 216 264 8 
E 216 268 1 
E 216 414 4 
E 216 446 3 
E 216 455 1 
E 216 480 7 
E 217 228 3 
E 217 258 9 
E 217 284 4 
E 217 296 7 
E 217 318 2 
E 217 321 2 
E 217 336 8 
E 217 420 4 
E 217 425 2 
E 217 429 1 
E 217 443 4 
E 217 488 9 
E 218 290 8 
E 218 312 5 
E 218 318 2 
E 218 382 8 
E 218 417 7 
E 219 233 10 
E 219 256 1 
E 219 284 6 
E 219 295 6 
E 219 322 1 
E 219 325 10 
E 219 327 3 
E 219 458 10 
E 219 493 8 
E 220 233 4 
E 220 285 5 
E 220 441 7 
E 220 492 6 
E 221 298 5 
E 221 421 3 
E 222 281 9 
E 222 389 3 
E 222 395 10 
E 222 413 8 
E 222 421 3 
E 222 444 2 
E 222 481 7 
E 222 485 4 
E 223 288 10 
E 223 402 2 
E 223 468 9 
E 224 237 9 
E 224 267 10 
E 224 345 5 
E 224 364 2 
E 224 365 1 
E 224 373 4 
E 224 389 9 
E 224 454 7 
E 224 474 1 
E 225 230 9 
E 225 234 7 
E 225 274 2 
E 225 321 5 
E 226 290 3 
E 226 442 6 
E 227 249 7 
E 227 455 1 
E 228 302 4 
E 228 311 2 
E 228 313 5 
E 228 487 8 
E 228 494 4 
E 229 304 6 
E 229 310 2 
E 229 345 6 
E 229 372 9 
E 230 289 5 
E 230 348 5 
E 230 397 2 
E 230 408 10 
E 230 489 3 
E 231 245 5 
E 231 278 1 
E 231 281 3 
E 231 323 5 
E 231 337 10 
E 231 344 3 
E 231 398 3 
E 231 429 6 
E 231 444 4 
E 231 447 3 
E 231 455 4 
E 232 254 9 
E 232 350 6 
E 232 416 4 
E 232 437 8 
E 232 462 6 
E 232 484 5 
E 233 363 4 
E 233 461 3 
E 234 238 8 
E 234 300 8 
E 234 309 5 
E 234 344 10 
E 234 351 8 
E 234 462 9 
E 234 469 2 
E 234 476 3 
E 234 483 1 
E 235 239 2 
E 235 341 8 
E 235 381 10 
E 235 409 2 
E 236 262 3 
E 236 295 9 
E 236 326 5 
E 236 393 10 
E 236 401 6 
E 236 436 8 
E 237 264 2 
E 237 301 9 
E 237 308 8 
E 237 338 3 
E 237 405 9 
E 238 247 3 
E 238 315 8 
E 238 474 8 
E 239 259 5 
E 239 349 5 
E 239 381 2 
E 239 405 1 
E 239 419 5 
E 239 438 6 
E 239 439 5 
E 240 286 10 
E 240 289 2 
E 241 302 10 
E 241 422 2 
E 242 266 2 
E 242 362 1 
E 242 385 8 
E 243 264 7 
E 243 348 6 
E 243 367 2 
E 243 396 2 
E 243 439 6 
E 243 454 4 
E 243 487 5 
E 244 271 7 
E 244 302 6 
E 244 306 8 
E 244 329 5 
E 244 333 4 
E 244 353 6 
E 245 461 1 
E 246 301 8 
E 246 372 2 
E 246 418 7 
E 246 485 10 
E 247 254 6 
E 247 255 7 
E 247 258 4 
E 247 263 2 
E 247 271 10 
E 247 298 5 
E 247 361 7 
E 247 405 6 
E 247 429 3 
E 247 484 8 
E 247 486 8 
E 248 270 10 
E 248 319 6 
E 248 328 9 
E 248 365 3 
E 248 405 5 
E 248 479 3 
E 248 498 7 
E 249 369 6 
E 249 434 10 
E 249 484 9 
E 249 495 1 
E 250 321 6 
E 250 380 2 
E 250 427 8 
E 250 443 7 
E 250 464 4 
E 251 254 5 
E 251 374 7 
E 251 410 8 
E 251 424 9 
E 251 456 8 
E 252 356 1 
E 252 426 3 
E 252 472 5 
E 252 495 6 
E 253 391 7 
E 253 410 4 
E 253 454 7 
E 253 474 2 
E 254 319 6 
E 254 320 10 
E 254 346 2 
E 254 377 3 
E 254 388 7 
E 254 396 8 
E 255 280 2 
E 255 325 2 
E 255 334 2 
E 255 489 10 
E 256 273 7 
E 257 385 7 
E 258 265 2 
E 258 330 6 
E 258 387 4 
E 258 442 9 
E 258 445 1 
E 259 260 7 
E 259 303 9 
E 259 323 6 
E 259 339 6 
E 259 361 6 
E 259 475 10 
E 260 270 2 
E 260 286 6 
E 261 308 6 
E 261 440 5 
E 262 293 8 
E 262 351 6 
E 262 356 6 
E 262 370 7 
E 262 402 1 
E 262 440 2 
E 262 498 5 
E 263 425 9 
E 263 473 4 
E 264 301 9 
E 264 322 9 
E 264 418 3 
E 266 378 10 
E 266 395 4 
E 266 427 1 
E 266 475 4 
E 267 274 9 
E 267 392 4 
E 267 419 8 
E 267 451 10 
E 267 490 2 
E 268 322 2 
E 268 325 2 
E 268 332 5 
E 268 333 6 
E 268 338 2 
E 268 426 2 
E 268 428 7 
E 268 432 6 
E 268 497 3 
E 269 368 5 
E 269 376 10 
E 269 389 10 
E 269 428 8 
E 269 468 5 
E 270 309 6 
E 270 485 10 
E 271 284 1 
E 271 310 8 
E 271 313 9 
E 271 347 9 
E 271 414 5 
E 271 444 2 
E 271 478 1 
E 271 499 3 
E 272 320 4 
E 272 329 4 
E 272 383 9 
E 272 459 3 
E 273 373 5 
E 273 417 8 
E 273 430 5 
E 273 466 2 
E 273 497 7 
E 274 350 1 
E 274 469 9 
E 274 494 10 
E 275 343 10 
E 275 420 6 
E 275 441 4 
E 276 334 7 
E 276 364 6 
E 276 427 3 
E 276 458 10 
E 277 367 3 
E 277 483 5 
E 278 320 10 
E 278 322 6 
E 278 346 5 
E 278 351 9 
E 278 370 3 
E 278 400 3 
E 278 407 3 
E 278 462 8 
E 279 311 10 
E 279 313 5 
E 279 321 10 
E 279 419 8 
E 279 423 3 
E 279 484 2 
E 280 331 2 
E 280 400 7 
E 280 419 7 
E 280 474 7 
E 280 483 5 
E 280 489 1 
E 281 417 7 
E 281 441 10 
E 282 319 4 
E 282 436 3 
E 282 448 10 
E 283 340 6 
E 284 327 5 
E 284 394 4 
E 284 410 9 
E 284 421 8 
E 284 455 2 
E 284 459 6 
E 284 499 6 
E 285 305 2 
E 285 339 6 
E 285 374 7 
E 285 398 9 
E 285 496 5 
E 286 300 1 
E 286 350 2 
E 286 386 3 
E 286 407 7 
E 286 471 10 
E 287 388 8 
E 287 389 6 
E 287 500 3 
E 288 307 3 
E 288 371 9 
E 288 380 4 
E 288 432 10 
E 289 368 10 
E 289 410 4 
E 289 413 5 
E 289 431 10 
E 289 488 1 
E 290 390 9 
E 290 418 4 
E 291 314 10 
E 291 343 9 
E 291 461 7 
E 292 319 9 
E 292 322 2 
E 292 327 5 
E 292 373 5 
E 292 412 9 
E 293 315 6 
E 293 445 8 
E 293 468 3 
E 293 485 7 
E 294 391 7 
E 294 473 1 
E 295 327 6 
E 296 331 1 
E 296 438 10 
E 297 309 1 
E 297 342 1 
E 297 478 4 
E 298 351 5 
E 298 357 8 
E 298 365 2 
E 298 374 6 
E 298 418 8 
E 298 432 4 
E 299 454 7 
E 300 330 10 
E 300 336 9 
E 300 434 7 
E 301 342 4 
E 301 418 9 
E 301 421 6 
E 301 446 4 
E 301 481 5 
E 303 340 8 
E 303 346 10 
E 303 363 8 
E 303 466 1 
E 304 325 1 
E 304 397 5 
E 304 401 3 
E 304 457 5 
E 304 474 6 
E 305 386 7 
E 305 416 4 
E 305 417 7 
E 305 437 8 
E 305 440 4 
E 305 447 2 
E 305 449 3 
E 306 343 10 
E 306 347 1 
E 306 361 5 
E 306 401 4 
E 306 444 4 
E 306 447 6 
E 307 357 1 
E 307 427 2 
E 308 331 9 
E 308 354 9 
E 308 415 6 
E 308 423 8 
E 309 343 8 
E 309 390 7 
E 309 446 9 
E 309 451 3 
E 310 437 5 
E 310 498 2 
E 311 328 5 
E 311 336 7 
E 311 403 1 
E 311 420 7 
E 311 426 5 
E 311 433 6 
E 312 479 9 
E 313 344 6 
E 313 392 5 
E 313 393 5 
E 313 411 3 
E 313 437 10 
E 314 327 7 
E 314 399 10 
E 314 415 2 
E 315 355 5 
E 315 413 9 
E 315 474 8 
E 316 328 1 
E 316 354 7 
E 316 419 10 
E 316 497 8 
E 317 332 1 
E 317 379 9 
E 317 387 10 
E 318 402 3 
E 318 436 4 
E 318 438 5 
E 318 473 6 
E 319 341 3 
E 319 421 2 
E 319 500 9 
E 320 387 8 
E 320 464 4 
E 320 465 6 
E 321 351 7 
E 321 435 9 
E 321 449 2 
E 321 492 10 
E 321 498 1 
E 322 349 2 
E 322 451 7 
E 323 365 2 
E 323 402 5 
E 323 482 4 
E 324 334 8 
E 324 397 4 
E 324 403 8 
E 324 422 8 
E 324 481 10 
E 325 326 9 
E 325 342 6 
E 325 380 1 
E 325 394 8 
E 325 456 6 
E 325 463 8 
E 325 499 4 
E 326 331 7 
E 326 336 1 
E 326 340 5 
E 326 384 8 
E 326 475 8 
E 327 376 4 
E 327 410 4 
E 328 334 5 
E 328 362 9 
E 328 382 10 
E 328 390 7 
E 329 333 7 
E 329 442 9 
E 330 390 6 
E 330 398 5 
E 330 438 8 
E 330 442 7 
E 330 487 7 
E 331 439 9 
E 332 366 10 
E 332 445 9 
E 332 477 1 
E 333 347 3 
E 333 383 10 
E 334 344 3 
E 334 367 8 
E 334 385 1 
E 334 389 10 
E 334 420 3 
E 335 466 7 
E 335 492 1 
E 336 390 10 
E 336 434 3 
E 336 440 4 
E 337 368 1 
E 337 393 1 
E 337 433 1 
E 337 479 8 
E 337 480 4 
E 338 420 5 
E 338 471 6 
E 339 367 6 
E 339 387 5 
E 339 392 1 
E 339 469 1 
E 340 374 5 
E 340 477 1 
E 340 483 1 
E 340 496 9 
E 341 344 1 
E 341 414 8 
E 341 424 10 
E 341 497 2 
E 342 368 5 
E 342 374 1 
E 342 457 7 
E 343 349 4 
E 343 388 10 
E 343 402 6 
E 343 486 6 
E 344 409 1 
E 344 416 8 
E 344 466 10 
E 346 434 10 
E 347 448 3 
E 348 414 7 
E 348 425 7 
E 349 426 6 
E 350 383 8 
E 350 430 3 
E 350 434 9 
E 350 451 9 
E 350 496 6 
E 351 388 2 
E 351 480 3 
E 351 487 3 
E 352 428 5 
E 352 490 6 
E 352 500 5 
E 353 357 5 
E 353 453 9 
E 353 492 10 
E 354 364 1 
E 354 365 1 
E 354 366 6 
E 354 404 8 
E 354 423 10 
E 354 469 5 
E 355 458 6 
E 356 380 2 
E 356 437 10 
E 356 459 6 
E 357 360 5 
E 357 423 2 
E 357 442 1 
E 358 420 9 
E 358 473 4 
E 358 480 5 
E 360 377 6 
E 360 444 3 
E 361 441 6 
E 361 475 4 
E 362 419 9 
E 362 444 4 
E 362 455 3 
E 363 488 4 
E 364 479 6 
E 365 383 8 
E 365 408 10 
E 365 419 6 
E 365 480 7 
E 366 493 3 
E 366 500 5 
E 367 488 4 
E 367 495 5 
E 368 388 5 
E 368 423 1 
E 369 372 5 
E 369 441 8 
E 369 470 3 
E 370 416 1 
E 370 461 5 
E 370 500 7 
E 371 385 5 
E 371 394 2 
E 371 437 8 
E 371 450 1 
E 372 394 10 
E 372 464 4 
E 372 476 6 
E 373 436 4 
E 373 453 9 
E 374 399 7 
E 374 446 3 
E 374 485 7 
E 375 401 8 
E 375 490 1 
E 376 421 8 
E 377 483 4 
E 378 456 5 
E 378 496 2 
E 378 499 1 
E 379 402 2 
E 379 463 1 
E 379 467 4 
E 380 382 8 
E 380 411 2 
E 380 496 3 
E 382 478 4 
E 382 496 3 
E 383 494 1 
E 384 443 4 
E 384 481 9 
E 385 423 8 
E 386 414 1 
E 387 456 6 
E 387 483 3 
E 388 406 6 
E 389 464 3 
E 390 424 8 
E 390 442 2 
E 390 463 5 
E 391 406 3 
E 391 464 10 
E 391 487 2 
E 392 421 4 
E 392 441 1 
E 392 474 2 
E 393 394 8 
E 393 458 2 
E 394 412 1 
E 395 461 1 
E 395 488 2 
E 396 468 2 
E 396 482 1 
E 396 495 1 
E 397 398 9 
E 397 426 8 
E 398 410 4 
E 398 427 8 
E 399 446 7 
E 399 459 5 
E 399 476 7 
E 399 493 8 
E 400 406 9 
E 400 438 10 
E 400 465 9 
E 401 447 1 
E 402 411 6 
E 402 463 3 
E 402 464 8 
E 402 484 8 
E 403 472 9 
E 404 455 8 
E 404 459 10 
E 404 460 10 
E 405 425 1 
E 405 430 8 
E 409 410 5 
E 409 415 4 
E 409 451 10 
E 410 493 10 
E 411 424 5 
E 411 430 5 
E 411 458 5 
E 411 469 10 
E 412 442 10 
E 412 444 10 
E 413 456 4 
E 414 422 3 
E 414 443 4 
E 414 456 5 
E 414 468 3 
E 415 494 6 
E 416 434 3 
E 416 453 8 
E 416 471 1 
E 418 451 10 
E 418 491 4 
E 419 425 3 
E 419 447 1 
E 419 494 1 
E 420 469 9 
E 420 479 2 
E 421 461 1 
E 421 489 4 
E 421 494 5 
E 422 440 5 
E 423 444 5 
E 423 460 4 
E 424 485 3 
E 425 430 6 
E 427 469 5 
E 427 498 1 
E 428 431 3 
E 428 443 1 
E 431 436 5 
E 433 446 10 
E 433 494 4 
E 434 486 7 
E 435 455 2 
E 435 469 3 
E 437 491 9 
E 439 474 2 
E 440 480 9 
E 441 449 2 
E 441 471 9 
E 441 474 8 
E 447 471 1 
E 447 491 3 
E 449 470 10 
E 449 487 6 
E 450 464 3 
E 451 484 1 
E 452 469 6 
E 452 470 6 
E 453 483 8 
E 454 457 3 
E 455 465 5 
E 456 458 6 
E 456 482 7 
E 456 484 6 
E 457 459 10 
E 457 484 9 
E 458 493 2 
E 459 499 2 
E 461 465 2 
E 461 472 7 
E 461 489 5 
E 463 493 3 
E 464 497 6 
E 466 471 7 
E 467 469 9 
E 467 491 3 
E 478 488 3 
E 480 487 7 
E 482 488 4 
E 482 489 1 
E 482 495 1 
E 483 493 5 
E 484 486 2 
E 495 497 7 
END 

SECTION ProfitableVertices 
ProfitableVertices 10 
PV 1 9
PV 59 3
PV 81 5
PV 108 8
PV 217 3
PV 232 5
PV 294 5
PV 302 8
PV 396 7
PV 410 6
END 

EOF 
